9799.28,62.07,76.99
9372.94,64.89,80.5
10471.86,58.08,72.05
9957.13,61.08,75.77
12321.78,49.36,61.23
10243.31,59.38,73.66
9995.35,60.85,75.48
10434.31,58.29,72.31
9103.1,66.81,82.88
9981.47,60.93,75.59
9750.63,62.38,77.38
12317.03,49.38,61.26
10158.99,59.87,74.27
9743.18,62.42,77.44
10270.48,59.22,73.46
9437.64,64.45,79.94
11095.36,54.82,68.0
10357.78,58.72,72.84
8978.25,67.74,84.03
11289.88,53.87,66.83
